data;

### SETS ###

set NODES :=
entry03
entry02
entry01
exit04
exit05
exit02
exit01
exit03
N01
N16
N05b
N06
N09
N11
N08
N04
N10
N05
N05a
N05c
N13
N12
N101
N05d
;

set SOURCES :=
entry03
entry02
entry01
;

set SINKS :=
exit04
exit05
exit02
exit01
exit03
;

set NAMES :=
L15
L08
L09
L07d
L101
L14
L07a
L07e
L19
L07f
L13
L12
L04
L01
L07b
L20
L102
L16
L07c
CS3
CS2
CS1
Conn01
re01
CV01
;

set ARCS :=
(N11, N13, L15)
(N06, exit01, L08)
(N06, N08, L09)
(N05c, N05b, L07d)
(entry03, entry02, L101)
(N09, N11, L14)
(N05, N05a, L07a)
(N05d, N05b, L07e)
(N16, exit03, L19)
(N05b, N06, L07f)
(N10, N13, L13)
(N09, N10, L12)
(N01, N04, L04)
(entry01, N101, L01)
(N05a, N05c, L07b)
(N16, exit04, L20)
(N05d, exit05, L102)
(N12, exit02, L16)
(N05a, N05d, L07c)
(N13, N16, CS3)
(N08, N09, CS2)
(N04, N05, CS1)
(entry02, N01, Conn01)
(N101, N01, re01)
(N11, N12, CV01)
;

set PIPES :=
(N11, N13, L15)
(N06, exit01, L08)
(N06, N08, L09)
(N05c, N05b, L07d)
(entry03, entry02, L101)
(N09, N11, L14)
(N05, N05a, L07a)
(N05d, N05b, L07e)
(N16, exit03, L19)
(N05b, N06, L07f)
(N10, N13, L13)
(N09, N10, L12)
(N01, N04, L04)
(entry01, N101, L01)
(N05a, N05c, L07b)
(N16, exit04, L20)
(N05d, exit05, L102)
(N12, exit02, L16)
(N05a, N05d, L07c)
;

set  COMPRESSORS:=
(N13, N16, CS3)
(N08, N09, CS2)
(N04, N05, CS1)
;

set  CONTROLVALVES:=
(N11, N12, CV01)
;

set  VALVES:=
;

set  SHORTPIPES:=
(entry02, N01, Conn01)
;

set  RESISTORS:=
(N101, N01, re01)
;

### PARAMS ###


# for NODES
param: FlowInOut PressureLower PressureUpper :=
entry03 50.15555555555556 30.0 70.0
entry02 38.09722222222223 30.0 70.0
entry01 62.94833333333334 30.0 70.0
exit04 -33.933888888888895 30.0 70.0
exit05 -27.77777777777778 30.0 70.0
exit02 -27.77777777777778 20.0 35.0
exit01 -27.77777777777778 30.0 70.0
exit03 -33.933888888888895 30.0 70.0
N01 0 30.0 70.0
N16 0 30.0 70.0
N05b 0 30.0 70.0
N06 0 30.0 70.0
N09 0 30.0 70.0
N11 0 30.0 70.0
N08 0 30.0 70.0
N04 0 30.0 70.0
N10 0 30.0 70.0
N05 0 30.0 70.0
N05a 0 30.0 70.0
N05c 0 30.0 70.0
N13 0 30.0 70.0
N12 0 30.0 70.0
N101 0 30.0 70.0
N05d 0 30.0 70.0
;

# for Mean molar mass
param AvgMolarMass =
0.019265018463268196
;
param AvgGasTemp =
274.207594373939
;
param AvgPressure =
49.99999999999999
;
param AvgPseudoPressure =
44.778070870387424
;
param AvgPseudoTemp =
189.03082447319863
;

# for SOURCES
param: CalorificValue GasTemperature MolarMass:=
entry03 40.5680641288443 10.0 19.5
entry02 35.69295876538446 10.0 18.5674
entry01 36.28915283077253 10.0 19.5
;

# for SINKS
param: FlowLowerNode FlowUpperNode :=
exit04 -250.0 0
exit05 -250.0 0
exit02 -250.0 0
exit01 -250.0 0
exit03 -250.0 0
;

# for ARCS
param: FlowLowerArc FlowUpperArc :=
N11 N13 L15 0.0 100.0
N06 exit01 L08 0.0 118.05555555555556
N06 N08 L09 0.0 300.0
N05c N05b L07d 0.0 450.0
entry03 entry02 L101 0.0 205.0
N09 N11 L14 0.0 150.0
N05 N05a L07a 0.0 450.0
N05d N05b L07e 0.0 450.0
N16 exit03 L19 0.0 118.05555555555556
N05b N06 L07f 0.0 450.0
N10 N13 L13 0.0 150.0
N09 N10 L12 0.0 161.11111111111111
N01 N04 L04 0.0 405.0
entry01 N101 L01 0.0 205.0
N05a N05c L07b 0.0 450.0
N16 exit04 L20 0.0 118.05555555555556
N05d exit05 L102 0.0 205.0
N12 exit02 L16 0.0 50.0
N05a N05d L07c 0.0 450.0
N13 N16 CS3 0.0 583.3333333333334
N08 N09 CS2 0.0 583.3333333333334
N04 N05 CS1 0.0 583.3333333333334
entry02 N01 Conn01 0.0 200.0
N101 N01 re01 0.0 833.3333333333334
N11 N12 CV01 0.0 277.77777777777777
;

# for PIPES
param: Roughness Diameter Length e d :=
N11 N13 L15 1.2e-05 0.00085 50000.0 0.0000399039681354570 0.0000399039681354570
N06 exit01 L08 1e-05 0.0009 30000.0 0.0000533270737104000 0.0000533270737104000
N06 N08 L09 1e-05 0.0009 30000.0 0.0000533270737104000 0.0000533270737104000
N05c N05b L07d 1e-05 0.0009 30000.0 0.0000533270737104000 0.0000533270737104000
entry03 entry02 L101 1e-05 0.0011 50000.0 0.0000733438504118082 0.0000733438504118082
N09 N11 L14 1.2e-05 0.00085 100000.0 0.0000399039681354570 0.0000399039681354570
N05 N05a L07a 1e-05 0.0009 30000.0 0.0000533270737104000 0.0000533270737104000
N05d N05b L07e 1e-05 0.0009 30000.0 0.0000533270737104000 0.0000533270737104000
N16 exit03 L19 1e-05 0.0011 50000.0 0.0000733438504118082 0.0000733438504118082
N05b N06 L07f 1e-05 0.0009 30000.0 0.0000533270737104000 0.0000533270737104000
N10 N13 L13 1.2e-05 0.0009 50000.0 0.0000437123290379104 0.0000437123290379104
N09 N10 L12 1.2e-05 0.0009 100000.0 0.0000437123290379104 0.0000437123290379104
N01 N04 L04 1e-05 0.0021000000000000003 10000.0 0.000203589674754911 0.000203589674754911
entry01 N101 L01 1e-05 0.0011 50000.0 0.0000733438504118082 0.0000733438504118082
N05a N05c L07b 1e-05 0.0009 30000.0 0.0000533270737104000 0.0000533270737104000
N16 exit04 L20 1e-05 0.0011 50000.0 0.0000733438504118082 0.0000733438504118082
N05d exit05 L102 1e-05 0.0011 50000.0 0.0000733438504118082 0.0000733438504118082
N12 exit02 L16 1e-05 0.0005 30000.0 0.0000208418172585813 0.0000208418172585813
N05a N05d L07c 1e-05 0.0009 30000.0 0.0000533270737104000 0.0000533270737104000
;

# for COMPRESSORSTATIONS & CONTROLVAVES
param:  PressureChangeUpper PressureChangeLower :=
N13 N16 CS3 35.0 0
N08 N09 CS2 40.0 0
N04 N05 CS1 37.0 0
N11 N12 CV01 60.0 0
;